52	0

0	2	2	3
8	3	5	6	7
7	2	4	7
4	2	5	6
9	2	10	11
1	2	8	9
4	2	8	9
10	2	11	12
4	2	10	11
4	1	12
7	2	13	14
3	2	13	14
4	1	15
2	1	15
3	1	16
2	1	17
2	1	18
8	1	19
9	1	20
4	1	21
8	1	22
1	1	23
3	1	24
2	1	25
2	2	26	27
4	1	28
1	1	28
6	1	29
10	1	30
3	1	31
5	1	32
7	1	33
9	1	34
1	1	35
6	1	36
6	1	37
8	1	38
10	1	39
3	1	40
2	1	41
10	1	42
7	1	43
10	1	44
7	1	45
5	1	46
6	1	47
4	1	48
1	1	49
2	1	50
4	1	51
1	1	52
0	0
